
List of user-set options:

                                    Name   Value                used
                        file_print_level = 5                     yes
                   hessian_approximation = limited-memory        yes
                           linear_solver = mumps                 yes
                                max_iter = 400                   yes
                      nlp_scaling_method = user-scaling          yes
                             output_file = /Users/marcello/Documents/zhaw/BAZL/DRACONIAN/Dymos/terrain_traj_v2_out/IPOPT.out  yes
                             print_level = 5                     yes
                      print_user_options = yes                   yes
                                      sb = yes                   yes
This is Ipopt version 3.14.19, running with linear solver MUMPS 5.8.2.

Number of nonzeros in equality constraint Jacobian...:     6114
Number of nonzeros in inequality constraint Jacobian.:     8955
Number of nonzeros in Lagrangian Hessian.............:        0

Total number of variables............................:      178
                     variables with only lower bounds:        0
                variables with lower and upper bounds:      122
                     variables with only upper bounds:        0
Total number of equality constraints.................:      132
Total number of inequality constraints...............:      135
        inequality constraints with only lower bounds:       45
   inequality constraints with lower and upper bounds:       45
        inequality constraints with only upper bounds:       45

iter    objective    inf_pr   inf_du lg(mu)  ||d||  lg(rg) alpha_du alpha_pr  ls
   0  5.0000000e+00 3.03e+01 1.07e+00   0.0 0.00e+00    -  0.00e+00 0.00e+00   0
   1  5.1882470e+00 1.54e+01 3.42e+01   0.5 1.33e+01    -  2.68e-02 5.14e-01f  1
   2  5.3025344e+00 1.18e+01 2.85e+01  -0.3 5.05e+00    -  3.79e-01 2.26e-01f  1
   3  5.7771287e+00 1.79e-01 6.95e+00  -0.1 4.75e+00    -  5.88e-01 1.00e+00f  1
   4  5.7584904e+00 1.44e-03 5.62e-01  -0.4 2.40e+00    -  9.20e-01 1.00e+00f  1
   5  5.7520052e+00 1.70e-05 9.19e-02  -2.0 2.29e-01    -  9.75e-01 1.00e+00h  1
   6  4.6738773e+00 3.60e-01 5.04e-02  -7.7 2.97e+01    -  4.27e-01 3.63e-01f  1
   7  4.1278764e+00 4.77e-01 7.44e-02  -1.3 4.77e+01    -  1.79e-01 3.22e-01f  1
   8  4.5509034e+00 1.62e-01 1.05e-01  -1.2 2.73e+01    -  1.00e+00 7.49e-01H  1
   9  3.8802396e+00 2.37e-01 2.16e-01  -2.0 6.71e+00    -  5.56e-01 1.00e+00h  1
iter    objective    inf_pr   inf_du lg(mu)  ||d||  lg(rg) alpha_du alpha_pr  ls
  10  3.5617310e+00 2.06e-01 9.55e-02  -1.9 4.90e+00    -  4.70e-01 1.00e+00h  1
  11  3.1194429e+00 2.98e-01 1.01e-01  -2.3 5.25e+00    -  4.16e-01 9.99e-01h  1
  12  3.0916573e+00 3.29e-01 5.43e-02  -2.3 5.28e+00    -  4.99e-01 1.00e+00h  1
  13  3.0004954e+00 1.62e-02 3.36e-02  -2.6 7.89e+00    -  5.28e-01 1.00e+00h  1
  14  3.0005484e+00 1.95e-07 3.78e-02  -8.2 1.59e+00    -  4.95e-01 1.00e+00h  1
  15  2.8786327e+00 5.84e-02 3.33e-02  -2.6 7.71e+00    -  8.44e-01 5.74e-01f  1
  16  2.7369818e+00 3.50e+00 2.48e-02  -2.7 5.34e+00    -  8.64e-01 1.00e+00h  1
  17  2.7410950e+00 7.25e-04 1.24e-02  -2.8 1.07e+01    -  2.20e-01 1.00e+00h  1
  18  2.7483505e+00 2.36e-03 9.57e-03  -2.4 4.85e+00    -  1.00e+00 1.00e+00h  1
  19  2.7140679e+00 5.77e-03 3.13e-03  -2.6 2.06e+00    -  8.10e-01 1.00e+00h  1
iter    objective    inf_pr   inf_du lg(mu)  ||d||  lg(rg) alpha_du alpha_pr  ls
  20  2.7128260e+00 2.07e-06 1.23e-02  -8.5 5.02e-01    -  8.50e-01 1.00e+00h  1
  21  2.6298939e+00 5.89e-03 1.61e-02  -3.8 1.06e+01    -  9.94e-01 2.39e-01f  1
  22  2.6969080e+00 2.05e-02 1.86e-02  -2.7 8.61e+00    -  3.37e-01 9.52e-01h  1
  23  2.6363523e+00 1.88e-02 5.51e-03  -3.2 6.55e+00    -  1.00e+00 6.56e-01h  1
  24  2.6217795e+00 2.09e-03 7.15e-04  -3.2 1.95e+00    -  1.00e+00 1.00e+00h  1
  25  2.5982323e+00 8.78e-03 3.66e-04  -3.6 1.83e+00    -  9.98e-01 9.88e-01h  1
  26  2.5931586e+00 8.44e-04 5.23e-04  -3.9 1.33e+00    -  9.19e-01 1.00e+00h  1
  27  2.5882305e+00 6.27e-04 1.07e-04  -4.4 1.15e+00    -  1.00e+00 9.96e-01h  1
  28  2.5870687e+00 1.58e-05 4.25e-05  -4.9 1.60e-01    -  1.00e+00 1.00e+00h  1
  29  2.5866067e+00 3.59e-06 2.04e-04  -5.7 4.00e-02    -  9.58e-01 9.13e-01h  1
iter    objective    inf_pr   inf_du lg(mu)  ||d||  lg(rg) alpha_du alpha_pr  ls
  30  2.5865435e+00 1.52e-06 6.12e-03  -6.0 1.03e-02    -  1.00e+00 7.86e-01h  1
  31  2.5865254e+00 2.25e-08 1.18e-06  -6.1 6.34e-03  -4.0 1.00e+00 1.00e+00h  1
  32  2.5864891e+00 1.44e-07 1.25e-05  -7.7 1.49e-02    -  1.00e+00 9.87e-01h  1
  33  2.5864879e+00 1.85e-11 5.17e-09  -9.7 1.51e-04    -  1.00e+00 1.00e+00h  1

Number of Iterations....: 33

                                   (scaled)                 (unscaled)
Objective...............:   2.5864878759304344e+00    2.5864878759304344e+00
Dual infeasibility......:   5.1676643068876427e-09    5.1676643068876427e-09
Constraint violation....:   1.8494190056231199e-11    1.8494190056231199e-11
Variable bound violation:   3.0790440863626145e-08    3.0790440863626145e-08
Complementarity.........:   2.4296092806234054e-10    2.4296092806234054e-10
Overall NLP error.......:   5.1676643068876427e-09    5.1676643068876427e-09


Number of objective function evaluations             = 35
Number of objective gradient evaluations             = 34
Number of equality constraint evaluations            = 35
Number of inequality constraint evaluations          = 35
Number of equality constraint Jacobian evaluations   = 34
Number of inequality constraint Jacobian evaluations = 34
Number of Lagrangian Hessian evaluations             = 0
Total seconds in IPOPT                               = 6.082

EXIT: Optimal Solution Found.
